0 79 0.5253661953607283
0 47 0.5390458598598182
0 87 0.5874074969518
0 11 0.6026099126768572
1 87 0.5197790790144219
1 20 0.5573658604274653
1 7 0.5575124429574447
1 45 0.5645461409065019
1 88 0.31130796429207014
2 72 0.6064498928342485
2 65 0.6234771687790991
2 77 0.6429431702125241
2 20 0.6793694702604308
2 38 0.45363053173386814
2 79 0.526425929690042
3 54 0.504847972013896
3 5 0.5150830510247579
3 19 0.5412211652800267
3 68 0.6499909886938278
3 22 0.35809453288826776
4 77 0.5428907280704889
4 36 0.5500400463904543
4 30 0.5877975418474531
4 66 0.5938315501551361
4 64 0.5334249456379179
5 71 0.42035882614148873
5 25 0.4481230125667265
5 54 0.49980196102215196
5 85 0.1121511589640794
6 39 0.5762722955418494
6 36 0.6053154823677055
6 9 0.6167060164999716
6 29 0.6550802941945779
6 22 0.3263406118549272
7 45 0.5605554058278717
7 21 0.6090803569109767
7 14 0.6207668884516832
7 87 0.6313498414460431
7 24 0.38796589351018834
7 57 0.5512478167032961
8 53 0.4999015728646537
8 50 0.5006626908143598
8 77 0.5222361576117412
8 66 0.535504160471562
9 50 0.6228688170712788
9 53 0.6481967168449403
9 36 0.6543794958416811
9 10 0.4154324538896914
9 27 0.5903521003151294
9 46 0.45305367680294795
10 58 0.3880097108975201
10 66 0.45130327501257456
10 61 0.5112391799107716
11 53 0.5638185731924499
11 45 0.601463190127266
11 87 0.6815351598183549
11 18 0.394006141681718
11 89 0.26896823306961465
11 90 0.5111063235999148
12 67 0.4405221760564988
12 14 0.4523989324247872
12 44 0.47596444906601465
12 82 0.5301940254436309
13 29 0.51296343154365
13 21 0.531615925058548
13 34 0.5335378167157798
13 39 0.5492974725709598
14 73 0.6315504855280368
14 50 0.6628886317893171
14 35 0.7158226224664069
14 25 0.5528144851366897
14 51 0.4045787695794392
14 60 0.40455190490763565
14 79 0.5753717838209074
14 81 0.44191532257181426
14 82 0.40230660404300367
15 50 0.3727767814656643
15 30 0.37898085532051623
15 26 0.4005580591498052
15 61 0.49194121660467227
16 31 0.5868358641595202
16 80 0.5940605706521974
16 19 0.6084949976418609
16 61 0.6499916370107314
16 62 0.5085774536813068
16 68 0.5752824948905324
16 69 0.37758541500458054
16 76 0.3809450683748836
17 33 0.602900425911783
17 42 0.6153624988743607
17 55 0.6918735193801906
17 80 0.7505845910766499
17 28 0.49405224869219905
17 84 0.49024148203012163
17 90 0.4903842849271193
18 32 0.3952506760766482
18 33 0.4007919013416598
18 54 0.4508920997628794
18 85 0.14522163379379055
18 89 0.2683528837658326
19 30 0.5877837369332007
19 61 0.6219862709737325
19 80 0.6332369351894157
19 37 0.41251685157827195
19 71 0.4890302573002309
19 89 0.21491057711705547
20 80 0.6113510547859227
20 77 0.6558359838594653
20 45 0.6966666786076311
20 42 0.5620816201773057
21 63 0.6038528826081064
21 73 0.6135419519890684
21 50 0.6780649214503399
21 38 0.48765000358892663
21 46 0.5027694469714477
21 48 0.5239745380130894
21 57 0.5839190681728803
21 71 0.4913697875415904
21 75 0.33953973663032627
21 87 0.5984862777342281
21 90 0.5395810054021767
22 54 0.3557960951906648
22 59 0.4719227209082839
23 80 0.5909659727184483
23 55 0.6063680212371149
23 30 0.660412022999047
23 31 0.6813945233859315
23 25 0.5295932720632881
23 35 0.5053239147266637
23 40 0.5291610885721649
23 78 0.4035838925571334
24 48 0.3625281157173568
24 62 0.38033537546509466
24 73 0.3931312664117705
25 29 0.5329113270006502
25 80 0.5351408125087352
26 27 0.5511531234696714
26 29 0.5666483945396426
26 36 0.5810621973686939
26 50 0.5884345897612546
26 41 0.5141761227343454
26 43 0.44699946823335684
26 88 0.23166850437396846
27 77 0.5320927173354562
27 80 0.5467243222558965
27 88 0.3490300218855301
28 36 0.4279232916241255
28 83 0.4883199039576547
28 59 0.5087408542201198
28 86 0.2756297732141181
29 50 0.6924019175168464
29 44 0.693642906069456
29 72 0.707630057318717
29 39 0.7203985388103749
29 32 0.6226567727624683
29 36 0.6762525824198152
29 40 0.5303064820048179
29 56 0.466380386965414
29 58 0.6837358336256525
29 59 0.5442340395240777
29 67 0.6433656922150987
30 55 0.7104899146643264
30 61 0.7545304279643869
30 66 0.7756910260295105
30 31 0.5882217525305954
30 43 0.4011102287895253
31 61 0.5391228081923461
31 35 0.4745405113367635
31 41 0.41861102683088564
32 39 0.6201953447137704
32 61 0.6715223471052091
32 36 0.6885174564928446
32 49 0.5657661004798898
32 56 0.5113425052308712
32 59 0.5426472847127474
32 68 0.605326265360866
32 69 0.3896048773126584
33 55 0.5868933904753421
33 53 0.632741321790763
33 80 0.6381955676468124
33 84 0.5094849548882633
34 45 0.6383639579105502
34 72 0.6509587965867978
34 57 0.6558933515272484
34 39 0.7315837836665842
34 56 0.4627137130884621
34 63 0.583504077136666
34 75 0.3472389901634128
34 84 0.5907710740298119
35 79 0.5306748716172153
35 51 0.4668995278238408
35 82 0.3755764130952437
36 49 0.6600797157309205
36 41 0.3862878287934306
36 44 0.6184271286558772
36 64 0.5847635637332655
37 80 0.3724674516743892
37 67 0.38138451994470796
37 56 0.4245845747184951
38 90 0.4573803304836991
38 79 0.5048238660953472
39 72 0.704248738406302
39 77 0.7530006545987834
39 67 0.6052364221902462
39 76 0.36708349819012753
40 52 0.522894561769103
40 59 0.5667247376183184
40 70 0.4416083568016019
41 52 0.38216381628573876
41 86 0.273862698559225
42 58 0.5301926389062067
42 80 0.5978667881307329
42 84 0.5017285975615525
43 61 0.3892066712379864
43 66 0.4242509747481057
43 88 0.2989170708590813
44 71 0.5873010674987085
44 80 0.6156446878969827
44 64 0.5346292658641294
44 86 0.24215826048691
45 53 0.6490203392217788
45 72 0.6767452981027308
45 50 0.6885726220192172
46 87 0.4066200069315619
46 50 0.41573462486537177
47 74 0.6129349712873476
47 80 0.617216050510911
47 61 0.625790095850968
47 50 0.6258442981871545
47 76 0.4359922311788286
47 81 0.41132619482119237
47 82 0.3798522536820556
48 74 0.5131404397301165
48 73 0.5619270610401134
48 65 0.6133660470615653
49 77 0.547161768085231
49 67 0.5811340284494292
49 71 0.5060636227243719
50 73 0.72207458317997
50 72 0.7565046711079982
50 52 0.552487353550699
50 57 0.5226221978667406
50 60 0.4114576819771318
50 65 0.6764508518436531
50 74 0.5090738023289008
50 81 0.41114012031605196
51 64 0.4121464998502183
51 70 0.6622266626651555
52 67 0.5063568862982806
52 53 0.6758842583731666
52 78 0.30229945947474074
53 58 0.6746665140437127
53 72 0.6838269320112838
53 80 0.6900133517935595
53 78 0.3277754460623257
54 68 0.4907710373731538
54 62 0.4963398726287404
55 61 0.6495010847449898
55 80 0.7073152711661814
55 59 0.5673719022071632
55 64 0.5711248608007771
55 76 0.3973088671246573
55 83 0.4365308002502804
56 66 0.46443909147106605
57 83 0.4350128248304507
57 85 0.10516183186910885
58 66 0.6697695134793437
58 72 0.7287159918014786
58 69 0.3039289834704699
59 60 0.41215678157904073
59 75 0.34086792674074984
59 83 0.45202919302538114
59 86 0.23281785132283916
60 79 0.41614878807000505
61 66 0.739729354304843
61 62 0.5228976956795293
61 68 0.6221862772593414
61 69 0.4009456904127079
62 72 0.5365540669467029
62 73 0.5941500359908461
63 87 0.5386821285515916
63 72 0.5714729684688179
63 75 0.4822076256424929
64 70 0.5103440071828153
64 78 0.3557656618835103
65 73 0.6307253341930338
65 72 0.6651633254052509
65 77 0.6882482043415415
66 80 0.7076676648903162
67 80 0.6335033682034027
67 72 0.6893393844211838
67 70 0.4271879713576819
72 80 0.7121080979531056
72 73 0.6622042141186134
73 74 0.5043637613097004
79 81 0.44972623700715775
85 89 0.2999222362362418
87 90 0.5531230818715059
